predicate gecode_circuit(int: offset,array [int] of var int: x);
predicate gecode_int_element(var int: idx,int: idxoffset,array [int] of var int: x,var int: c);
array [1..41] of var int: X_INTRODUCED_84_ = [50,0,43,9,30,45,48,54,4,21,43,27,40,52,30,51,45,51,18,24,23,30,33,23,6,40,27,35,23,27,23,39,24,22,23,47,48,41,6,37,5];
array [1..3] of var int: X_INTRODUCED_88_ = [-1,1,1];
array [1..41] of var int: X_INTRODUCED_89_ = [27,43,0,34,18,21,26,25,39,41,19,42,15,20,23,23,20,20,35,42,38,34,29,22,41,9,40,34,24,42,28,29,19,39,39,4,5,21,38,6,40];
array [1..41] of var int: X_INTRODUCED_93_ = [41,9,34,0,24,39,39,45,6,19,34,25,31,43,24,42,36,45,18,22,23,25,25,17,7,32,24,28,15,25,15,31,15,23,20,38,39,33,4,28,6];
array [1..41] of var int: X_INTRODUCED_97_ = [40,30,18,24,0,15,39,41,26,39,32,43,28,37,5,39,33,21,19,41,21,38,35,7,31,11,41,40,25,43,29,39,12,21,39,20,21,33,28,16,30];
array [1..41] of var int: X_INTRODUCED_101_ = [48,45,21,39,15,0,47,46,41,53,40,57,36,40,16,44,41,7,32,56,32,51,47,22,46,12,55,52,39,57,43,48,26,33,53,19,19,42,43,23,45];
array [1..41] of var int: X_INTRODUCED_105_ = [2,48,26,39,39,47,0,8,45,34,7,31,11,11,44,6,6,46,51,34,55,22,16,39,43,35,29,18,24,31,25,11,31,56,32,28,28,6,41,24,43];
array [1..41] of var int: X_INTRODUCED_109_ = [6,54,25,45,41,46,8,0,51,42,10,39,14,6,46,2,8,45,55,42,59,30,24,42,49,34,37,26,29,39,31,19,35,59,40,27,27,12,46,25,48];
array [1..41] of var int: X_INTRODUCED_113_ = [47,4,39,6,26,41,45,51,0,23,40,29,37,49,26,48,42,47,15,26,19,30,31,19,8,36,29,34,21,29,21,37,20,19,24,43,44,39,6,33,7];
array [1..41] of var int: X_INTRODUCED_117_ = [36,21,41,19,39,53,34,42,23,0,32,6,31,43,41,40,34,58,37,3,42,12,18,33,15,44,7,17,16,6,12,23,27,42,2,45,46,30,17,34,16];
array [1..41] of var int: X_INTRODUCED_121_ = [8,43,19,34,32,40,7,10,40,32,0,29,4,11,37,8,2,39,45,32,48,20,14,32,38,28,27,17,19,29,21,11,25,49,30,22,22,2,36,17,38];
array [1..41] of var int: X_INTRODUCED_125_ = [33,27,42,25,43,57,31,39,29,6,29,0,30,40,45,37,31,60,43,4,48,9,15,37,21,46,2,13,18,0,14,20,31,48,5,46,47,27,23,36,22];
array [1..41] of var int: X_INTRODUCED_129_ = [12,40,15,31,28,36,11,14,37,31,4,30,0,12,33,11,5,35,41,31,44,21,15,28,36,24,28,19,17,30,20,14,21,45,29,19,19,6,34,13,36];
array [1..41] of var int: X_INTRODUCED_133_ = [10,52,20,43,37,40,11,6,49,43,11,40,12,0,42,5,9,39,52,43,55,31,25,39,48,29,38,28,29,40,32,21,32,56,41,21,21,13,46,21,48];
array [1..41] of var int: X_INTRODUCED_137_ = [45,30,23,24,5,16,44,46,26,41,37,45,33,42,0,44,38,23,16,43,16,41,39,8,31,15,44,44,28,45,32,43,15,17,41,24,25,38,28,21,30];
array [1..41] of var int: X_INTRODUCED_141_ = [5,51,23,42,39,44,6,2,48,40,8,37,11,5,44,0,6,43,52,40,55,28,22,39,46,32,35,24,27,37,29,17,32,56,38,25,25,10,44,23,46];
array [1..41] of var int: X_INTRODUCED_145_ = [7,45,20,36,33,41,6,8,42,34,2,31,5,9,38,6,0,40,46,34,49,22,16,33,40,29,29,19,21,31,23,13,26,50,32,22,23,4,38,18,40];
array [1..41] of var int: X_INTRODUCED_149_ = [47,51,20,45,21,7,46,45,47,58,39,60,35,39,23,43,40,0,39,60,39,53,49,28,52,14,58,54,42,60,46,49,31,40,57,18,18,41,49,25,51];
array [1..41] of var int: X_INTRODUCED_153_ = [53,18,35,18,19,32,51,55,15,37,45,43,41,52,16,52,46,39,0,40,5,41,41,13,23,30,42,45,30,43,32,47,20,5,38,38,39,45,20,31,22];
array [1..41] of var int: X_INTRODUCED_157_ = [36,24,42,22,41,56,34,42,26,3,32,4,31,43,43,40,34,60,40,0,45,12,18,35,18,45,5,16,17,4,13,23,29,45,2,46,47,30,20,35,19];
array [1..41] of var int: X_INTRODUCED_161_ = [57,23,38,23,21,32,55,59,19,42,48,48,44,55,16,55,49,39,5,45,0,46,45,16,27,31,47,49,34,48,36,51,24,1,43,40,41,49,25,34,26];
array [1..41] of var int: X_INTRODUCED_165_ = [24,30,34,25,38,51,22,30,30,12,20,9,21,31,41,28,22,53,41,12,46,0,6,34,25,39,7,5,13,9,10,11,26,46,10,38,39,18,25,29,25];
array [1..41] of var int: X_INTRODUCED_169_ = [18,33,29,25,35,47,16,24,31,18,14,15,15,25,39,22,16,49,41,18,45,6,0,32,28,35,13,5,11,15,10,6,24,46,16,33,33,12,27,24,28];
array [1..41] of var int: X_INTRODUCED_173_ = [40,23,22,17,7,22,39,42,19,33,32,37,28,39,8,39,33,28,13,35,16,34,32,0,24,18,36,37,21,37,24,36,8,17,33,25,26,33,21,18,23];
array [1..41] of var int: X_INTRODUCED_177_ = [45,6,41,7,31,46,43,49,8,15,38,21,36,48,31,46,40,52,23,18,27,25,28,24,0,39,22,30,19,21,18,34,22,27,17,45,46,37,3,35,1];
array [1..41] of var int: X_INTRODUCED_181_ = [36,40,9,32,11,12,35,34,36,44,28,46,24,29,15,32,29,14,30,45,31,39,35,18,39,0,44,40,28,46,32,36,17,32,43,9,10,30,36,11,38];
array [1..41] of var int: X_INTRODUCED_185_ = [31,27,40,24,41,55,29,37,29,7,27,2,28,38,44,35,29,58,42,5,47,7,13,36,22,44,0,11,16,2,12,18,29,47,5,44,45,25,23,34,22];
array [1..41] of var int: X_INTRODUCED_189_ = [20,35,34,28,40,52,18,26,34,17,17,13,19,28,44,24,19,54,45,16,49,5,5,37,30,40,11,0,16,13,13,7,29,50,15,38,38,15,30,29,30];
array [1..41] of var int: X_INTRODUCED_193_ = [26,23,24,15,25,39,24,29,21,16,19,18,17,29,28,27,21,42,30,17,34,13,11,21,19,28,16,16,0,18,4,17,13,35,15,28,29,18,17,18,19];
array [1..41] of var int: X_INTRODUCED_200_ = [27,23,28,15,29,43,25,31,21,12,21,14,20,32,32,29,23,46,32,13,36,10,10,24,18,32,12,13,4,14,0,16,17,37,11,32,33,19,17,22,18];
array [1..41] of var int: X_INTRODUCED_204_ = [13,39,29,31,39,48,11,19,37,23,11,20,14,21,43,17,13,49,47,23,51,11,6,36,34,36,18,7,17,20,16,0,28,52,21,33,33,9,33,25,34];
array [1..41] of var int: X_INTRODUCED_208_ = [33,24,19,15,12,26,31,35,20,27,25,31,21,32,15,32,26,31,20,29,24,26,24,8,22,17,29,29,13,31,17,28,0,25,27,23,24,25,19,13,21];
array [1..41] of var int: X_INTRODUCED_212_ = [57,22,39,23,21,33,56,59,19,42,49,48,45,56,17,56,50,40,5,45,1,46,46,17,27,32,47,50,35,48,37,52,25,0,43,41,42,50,25,35,26];
array [1..41] of var int: X_INTRODUCED_216_ = [34,23,39,20,39,53,32,40,24,2,30,5,29,41,41,38,32,57,38,2,43,10,16,33,17,43,5,15,15,5,11,21,27,43,0,43,44,28,18,33,18];
array [1..41] of var int: X_INTRODUCED_220_ = [29,47,4,38,20,19,28,27,43,45,22,46,19,21,24,25,22,18,38,46,40,38,33,25,45,9,44,38,28,46,32,33,23,41,43,0,1,24,42,10,44];
array [1..41] of var int: X_INTRODUCED_224_ = [29,48,5,39,21,19,28,27,44,46,22,47,19,21,25,25,23,18,39,47,41,39,33,26,46,10,45,38,29,47,33,33,24,42,44,1,0,24,43,11,45];
array [1..41] of var int: X_INTRODUCED_228_ = [8,41,21,33,33,42,6,12,39,30,2,27,6,13,38,10,4,41,45,30,49,18,12,33,37,30,25,15,18,27,19,9,25,50,28,24,24,0,35,19,37];
array [1..41] of var int: X_INTRODUCED_232_ = [43,6,38,4,28,43,41,46,6,17,36,23,34,46,28,44,38,49,20,20,25,25,27,21,3,36,23,30,17,23,17,33,19,25,18,42,43,35,0,32,2];
array [1..41] of var int: X_INTRODUCED_236_ = [25,37,6,28,16,23,24,25,33,34,17,36,13,21,21,23,18,25,31,35,34,29,24,18,35,11,34,29,18,36,22,25,13,35,33,10,11,19,32,0,34];
array [1..41] of var int: X_INTRODUCED_240_ = [45,5,40,6,30,45,43,48,7,16,38,22,36,48,30,46,40,51,22,19,26,25,28,23,1,38,22,30,19,22,18,34,21,26,18,44,45,37,2,34,0];
array [1..41] of var int: X_INTRODUCED_244_ = [0,50,27,41,40,48,2,6,47,36,8,33,12,10,45,5,7,47,53,36,57,24,18,40,45,36,31,20,26,33,27,13,33,57,34,29,29,8,43,25,45];
array [1..42] of var int: X_INTRODUCED_249_ = [1,-1,-1,-1,-1,-1,-1,-1,-1,-1,-1,-1,-1,-1,-1,-1,-1,-1,-1,-1,-1,-1,-1,-1,-1,-1,-1,-1,-1,-1,-1,-1,-1,-1,-1,-1,-1,-1,-1,-1,-1,-1];
var 1..41: X_INTRODUCED_0_;
var 1..41: X_INTRODUCED_1_;
var 1..41: X_INTRODUCED_2_;
var 1..41: X_INTRODUCED_3_;
var 1..41: X_INTRODUCED_4_;
var 1..41: X_INTRODUCED_5_;
var 1..41: X_INTRODUCED_6_;
var 1..41: X_INTRODUCED_7_;
var 1..41: X_INTRODUCED_8_;
var 1..41: X_INTRODUCED_9_;
var 1..41: X_INTRODUCED_10_;
var 1..41: X_INTRODUCED_11_;
var 1..41: X_INTRODUCED_12_;
var 1..41: X_INTRODUCED_13_;
var 1..41: X_INTRODUCED_14_;
var 1..41: X_INTRODUCED_15_;
var 1..41: X_INTRODUCED_16_;
var 1..41: X_INTRODUCED_17_;
var 1..41: X_INTRODUCED_18_;
var 1..41: X_INTRODUCED_19_;
var 1..41: X_INTRODUCED_20_;
var 1..41: X_INTRODUCED_21_;
var 1..41: X_INTRODUCED_22_;
var 1..41: X_INTRODUCED_23_;
var 1..41: X_INTRODUCED_24_;
var 1..41: X_INTRODUCED_25_;
var 1..41: X_INTRODUCED_26_;
var 1..41: X_INTRODUCED_27_;
var 1..41: X_INTRODUCED_28_;
var 1..41: X_INTRODUCED_29_;
var 1..41: X_INTRODUCED_30_;
var 1..41: X_INTRODUCED_31_;
var 1..41: X_INTRODUCED_32_;
var 1..41: X_INTRODUCED_33_;
var 1..41: X_INTRODUCED_34_;
var 1..41: X_INTRODUCED_35_;
var 1..41: X_INTRODUCED_36_;
var 1..41: X_INTRODUCED_37_;
var 1..41: X_INTRODUCED_38_;
var 1..41: X_INTRODUCED_39_;
var 1..41: X_INTRODUCED_40_;
var 89..197: X_INTRODUCED_42_;
var 12..133: X_INTRODUCED_43_;
var 75..193: X_INTRODUCED_44_;
var 32..158: X_INTRODUCED_45_;
var 144..266: X_INTRODUCED_46_;
var 0..89: X_INTRODUCED_47_;
var 0..66: X_INTRODUCED_48_;
var 78..191: X_INTRODUCED_49_;
var 234..346: X_INTRODUCED_50_;
var 184..304: X_INTRODUCED_51_;
var 224..357: X_INTRODUCED_52_;
var 0..107: X_INTRODUCED_53_;
var 0..81: X_INTRODUCED_54_;
var 138..251: X_INTRODUCED_55_;
var 0..88: X_INTRODUCED_56_;
var 0..80: X_INTRODUCED_57_;
var 370..496: X_INTRODUCED_58_;
var 97..228: X_INTRODUCED_59_;
var 224..359: X_INTRODUCED_60_;
var 330..452: X_INTRODUCED_61_;
var 223..330: X_INTRODUCED_62_;
var 210..327: X_INTRODUCED_63_;
var 50..175: X_INTRODUCED_64_;
var 305..423: X_INTRODUCED_65_;
var 19..144: X_INTRODUCED_66_;
var 237..347: X_INTRODUCED_67_;
var 250..377: X_INTRODUCED_68_;
var 277..413: X_INTRODUCED_69_;
var 240..357: X_INTRODUCED_70_;
var 434..567: X_INTRODUCED_71_;
var 215..327: X_INTRODUCED_72_;
var 48..171: X_INTRODUCED_73_;
var 101..227: X_INTRODUCED_74_;
var 268..389: X_INTRODUCED_75_;
var 10..142: X_INTRODUCED_76_;
var 171..277: X_INTRODUCED_77_;
var 0..89: X_INTRODUCED_78_;
var 78..203: X_INTRODUCED_79_;
var 3..115: X_INTRODUCED_80_;
var 425..552: X_INTRODUCED_81_;
var 0..2106: obj:: output_var:: is_defined_var;
var 0..54: X_INTRODUCED_85_ ::var_is_introduced :: is_defined_var;
var 0..597: X_INTRODUCED_86_ ::var_is_introduced :: is_defined_var;
var 0..43: X_INTRODUCED_90_ ::var_is_introduced :: is_defined_var;
var 0..597: X_INTRODUCED_91_ ::var_is_introduced :: is_defined_var;
var 0..45: X_INTRODUCED_94_ ::var_is_introduced :: is_defined_var;
var 0..597: X_INTRODUCED_95_ ::var_is_introduced :: is_defined_var;
var 0..43: X_INTRODUCED_98_ ::var_is_introduced :: is_defined_var;
var 0..597: X_INTRODUCED_99_ ::var_is_introduced :: is_defined_var;
var 0..57: X_INTRODUCED_102_ ::var_is_introduced :: is_defined_var;
var 0..597: X_INTRODUCED_103_ ::var_is_introduced :: is_defined_var;
var 0..56: X_INTRODUCED_106_ ::var_is_introduced :: is_defined_var;
var 0..597: X_INTRODUCED_107_ ::var_is_introduced :: is_defined_var;
var 0..59: X_INTRODUCED_110_ ::var_is_introduced :: is_defined_var;
var 0..597: X_INTRODUCED_111_ ::var_is_introduced :: is_defined_var;
var 0..51: X_INTRODUCED_114_ ::var_is_introduced :: is_defined_var;
var 0..597: X_INTRODUCED_115_ ::var_is_introduced :: is_defined_var;
var 0..58: X_INTRODUCED_118_ ::var_is_introduced :: is_defined_var;
var 0..597: X_INTRODUCED_119_ ::var_is_introduced :: is_defined_var;
var 0..49: X_INTRODUCED_122_ ::var_is_introduced :: is_defined_var;
var 0..597: X_INTRODUCED_123_ ::var_is_introduced :: is_defined_var;
var 0..60: X_INTRODUCED_126_ ::var_is_introduced :: is_defined_var;
var 0..597: X_INTRODUCED_127_ ::var_is_introduced :: is_defined_var;
var 0..45: X_INTRODUCED_130_ ::var_is_introduced :: is_defined_var;
var 0..597: X_INTRODUCED_131_ ::var_is_introduced :: is_defined_var;
var 0..56: X_INTRODUCED_134_ ::var_is_introduced :: is_defined_var;
var 0..597: X_INTRODUCED_135_ ::var_is_introduced :: is_defined_var;
var 0..46: X_INTRODUCED_138_ ::var_is_introduced :: is_defined_var;
var 0..597: X_INTRODUCED_139_ ::var_is_introduced :: is_defined_var;
var 0..56: X_INTRODUCED_142_ ::var_is_introduced :: is_defined_var;
var 0..597: X_INTRODUCED_143_ ::var_is_introduced :: is_defined_var;
var 0..50: X_INTRODUCED_146_ ::var_is_introduced :: is_defined_var;
var 0..597: X_INTRODUCED_147_ ::var_is_introduced :: is_defined_var;
var 0..60: X_INTRODUCED_150_ ::var_is_introduced :: is_defined_var;
var 0..597: X_INTRODUCED_151_ ::var_is_introduced :: is_defined_var;
var 0..55: X_INTRODUCED_154_ ::var_is_introduced :: is_defined_var;
var 0..597: X_INTRODUCED_155_ ::var_is_introduced :: is_defined_var;
var 0..60: X_INTRODUCED_158_ ::var_is_introduced :: is_defined_var;
var 0..597: X_INTRODUCED_159_ ::var_is_introduced :: is_defined_var;
var 0..59: X_INTRODUCED_162_ ::var_is_introduced :: is_defined_var;
var 0..597: X_INTRODUCED_163_ ::var_is_introduced :: is_defined_var;
var 0..53: X_INTRODUCED_166_ ::var_is_introduced :: is_defined_var;
var 0..597: X_INTRODUCED_167_ ::var_is_introduced :: is_defined_var;
var 0..49: X_INTRODUCED_170_ ::var_is_introduced :: is_defined_var;
var 0..597: X_INTRODUCED_171_ ::var_is_introduced :: is_defined_var;
var 0..42: X_INTRODUCED_174_ ::var_is_introduced :: is_defined_var;
var 0..597: X_INTRODUCED_175_ ::var_is_introduced :: is_defined_var;
var 0..52: X_INTRODUCED_178_ ::var_is_introduced :: is_defined_var;
var 0..597: X_INTRODUCED_179_ ::var_is_introduced :: is_defined_var;
var 0..46: X_INTRODUCED_182_ ::var_is_introduced :: is_defined_var;
var 0..597: X_INTRODUCED_183_ ::var_is_introduced :: is_defined_var;
var 0..58: X_INTRODUCED_186_ ::var_is_introduced :: is_defined_var;
var 0..597: X_INTRODUCED_187_ ::var_is_introduced :: is_defined_var;
var 0..54: X_INTRODUCED_190_ ::var_is_introduced :: is_defined_var;
var 0..597: X_INTRODUCED_191_ ::var_is_introduced :: is_defined_var;
var 0..42: X_INTRODUCED_194_ ::var_is_introduced :: is_defined_var;
var 0..597: X_INTRODUCED_195_ ::var_is_introduced :: is_defined_var;
var 0..60: X_INTRODUCED_197_ ::var_is_introduced :: is_defined_var;
var 0..597: X_INTRODUCED_198_ ::var_is_introduced :: is_defined_var;
var 0..46: X_INTRODUCED_201_ ::var_is_introduced :: is_defined_var;
var 0..597: X_INTRODUCED_202_ ::var_is_introduced :: is_defined_var;
var 0..52: X_INTRODUCED_205_ ::var_is_introduced :: is_defined_var;
var 0..597: X_INTRODUCED_206_ ::var_is_introduced :: is_defined_var;
var 0..35: X_INTRODUCED_209_ ::var_is_introduced :: is_defined_var;
var 0..597: X_INTRODUCED_210_ ::var_is_introduced :: is_defined_var;
var 0..59: X_INTRODUCED_213_ ::var_is_introduced :: is_defined_var;
var 0..597: X_INTRODUCED_214_ ::var_is_introduced :: is_defined_var;
var 0..57: X_INTRODUCED_217_ ::var_is_introduced :: is_defined_var;
var 0..597: X_INTRODUCED_218_ ::var_is_introduced :: is_defined_var;
var 0..47: X_INTRODUCED_221_ ::var_is_introduced :: is_defined_var;
var 0..597: X_INTRODUCED_222_ ::var_is_introduced :: is_defined_var;
var 0..48: X_INTRODUCED_225_ ::var_is_introduced :: is_defined_var;
var 0..597: X_INTRODUCED_226_ ::var_is_introduced :: is_defined_var;
var 0..50: X_INTRODUCED_229_ ::var_is_introduced :: is_defined_var;
var 0..597: X_INTRODUCED_230_ ::var_is_introduced :: is_defined_var;
var 0..49: X_INTRODUCED_233_ ::var_is_introduced :: is_defined_var;
var 0..597: X_INTRODUCED_234_ ::var_is_introduced :: is_defined_var;
var 0..37: X_INTRODUCED_237_ ::var_is_introduced :: is_defined_var;
var 0..597: X_INTRODUCED_238_ ::var_is_introduced :: is_defined_var;
var 0..51: X_INTRODUCED_241_ ::var_is_introduced :: is_defined_var;
var 0..597: X_INTRODUCED_242_ ::var_is_introduced :: is_defined_var;
var 0..57: X_INTRODUCED_245_ ::var_is_introduced :: is_defined_var;
array [1..41] of var int: pred:: output_array([1..41]) = [X_INTRODUCED_0_,X_INTRODUCED_1_,X_INTRODUCED_2_,X_INTRODUCED_3_,X_INTRODUCED_4_,X_INTRODUCED_5_,X_INTRODUCED_6_,X_INTRODUCED_7_,X_INTRODUCED_8_,X_INTRODUCED_9_,X_INTRODUCED_10_,X_INTRODUCED_11_,X_INTRODUCED_12_,X_INTRODUCED_13_,X_INTRODUCED_14_,X_INTRODUCED_15_,X_INTRODUCED_16_,X_INTRODUCED_17_,X_INTRODUCED_18_,X_INTRODUCED_19_,X_INTRODUCED_20_,X_INTRODUCED_21_,X_INTRODUCED_22_,X_INTRODUCED_23_,X_INTRODUCED_24_,X_INTRODUCED_25_,X_INTRODUCED_26_,X_INTRODUCED_27_,X_INTRODUCED_28_,X_INTRODUCED_29_,X_INTRODUCED_30_,X_INTRODUCED_31_,X_INTRODUCED_32_,X_INTRODUCED_33_,X_INTRODUCED_34_,X_INTRODUCED_35_,X_INTRODUCED_36_,X_INTRODUCED_37_,X_INTRODUCED_38_,X_INTRODUCED_39_,X_INTRODUCED_40_];
array [1..41] of var int: arrival_time:: output_array([1..41]) = [0,X_INTRODUCED_42_,X_INTRODUCED_43_,X_INTRODUCED_44_,X_INTRODUCED_45_,X_INTRODUCED_46_,X_INTRODUCED_47_,X_INTRODUCED_48_,X_INTRODUCED_49_,X_INTRODUCED_50_,X_INTRODUCED_51_,X_INTRODUCED_52_,X_INTRODUCED_53_,X_INTRODUCED_54_,X_INTRODUCED_55_,X_INTRODUCED_56_,X_INTRODUCED_57_,X_INTRODUCED_58_,X_INTRODUCED_59_,X_INTRODUCED_60_,X_INTRODUCED_61_,X_INTRODUCED_62_,X_INTRODUCED_63_,X_INTRODUCED_64_,X_INTRODUCED_65_,X_INTRODUCED_66_,X_INTRODUCED_67_,X_INTRODUCED_68_,X_INTRODUCED_69_,X_INTRODUCED_70_,X_INTRODUCED_71_,X_INTRODUCED_72_,X_INTRODUCED_73_,X_INTRODUCED_74_,X_INTRODUCED_75_,X_INTRODUCED_76_,X_INTRODUCED_77_,X_INTRODUCED_78_,X_INTRODUCED_79_,X_INTRODUCED_80_,X_INTRODUCED_81_];
array [1..42] of var int: X_INTRODUCED_248_ ::var_is_introduced  = [obj,X_INTRODUCED_245_,X_INTRODUCED_85_,X_INTRODUCED_90_,X_INTRODUCED_94_,X_INTRODUCED_98_,X_INTRODUCED_102_,X_INTRODUCED_106_,X_INTRODUCED_110_,X_INTRODUCED_114_,X_INTRODUCED_118_,X_INTRODUCED_122_,X_INTRODUCED_126_,X_INTRODUCED_130_,X_INTRODUCED_134_,X_INTRODUCED_138_,X_INTRODUCED_142_,X_INTRODUCED_146_,X_INTRODUCED_150_,X_INTRODUCED_154_,X_INTRODUCED_158_,X_INTRODUCED_162_,X_INTRODUCED_166_,X_INTRODUCED_170_,X_INTRODUCED_174_,X_INTRODUCED_178_,X_INTRODUCED_182_,X_INTRODUCED_186_,X_INTRODUCED_190_,X_INTRODUCED_194_,X_INTRODUCED_197_,X_INTRODUCED_201_,X_INTRODUCED_205_,X_INTRODUCED_209_,X_INTRODUCED_213_,X_INTRODUCED_217_,X_INTRODUCED_221_,X_INTRODUCED_225_,X_INTRODUCED_229_,X_INTRODUCED_233_,X_INTRODUCED_237_,X_INTRODUCED_241_];
array [1..40] of var int: X_INTRODUCED_250_ ::var_is_introduced  = [X_INTRODUCED_85_,X_INTRODUCED_90_,X_INTRODUCED_94_,X_INTRODUCED_98_,X_INTRODUCED_102_,X_INTRODUCED_106_,X_INTRODUCED_110_,X_INTRODUCED_114_,X_INTRODUCED_118_,X_INTRODUCED_122_,X_INTRODUCED_126_,X_INTRODUCED_130_,X_INTRODUCED_134_,X_INTRODUCED_138_,X_INTRODUCED_142_,X_INTRODUCED_146_,X_INTRODUCED_150_,X_INTRODUCED_154_,X_INTRODUCED_158_,X_INTRODUCED_162_,X_INTRODUCED_166_,X_INTRODUCED_170_,X_INTRODUCED_174_,X_INTRODUCED_178_,X_INTRODUCED_182_,X_INTRODUCED_186_,X_INTRODUCED_190_,X_INTRODUCED_194_,X_INTRODUCED_197_,X_INTRODUCED_201_,X_INTRODUCED_205_,X_INTRODUCED_209_,X_INTRODUCED_213_,X_INTRODUCED_217_,X_INTRODUCED_221_,X_INTRODUCED_225_,X_INTRODUCED_229_,X_INTRODUCED_233_,X_INTRODUCED_237_,X_INTRODUCED_241_];
constraint gecode_circuit(1,pred):: domain;
constraint gecode_int_element(X_INTRODUCED_1_,1,X_INTRODUCED_84_,X_INTRODUCED_85_):: defines_var(X_INTRODUCED_85_);
constraint gecode_int_element(X_INTRODUCED_1_,1,arrival_time,X_INTRODUCED_86_):: defines_var(X_INTRODUCED_86_);
constraint int_lin_le(X_INTRODUCED_88_,[X_INTRODUCED_42_,X_INTRODUCED_86_,X_INTRODUCED_85_],0);
constraint gecode_int_element(X_INTRODUCED_2_,1,X_INTRODUCED_89_,X_INTRODUCED_90_):: defines_var(X_INTRODUCED_90_);
constraint gecode_int_element(X_INTRODUCED_2_,1,arrival_time,X_INTRODUCED_91_):: defines_var(X_INTRODUCED_91_);
constraint int_lin_le(X_INTRODUCED_88_,[X_INTRODUCED_43_,X_INTRODUCED_91_,X_INTRODUCED_90_],0);
constraint gecode_int_element(X_INTRODUCED_3_,1,X_INTRODUCED_93_,X_INTRODUCED_94_):: defines_var(X_INTRODUCED_94_);
constraint gecode_int_element(X_INTRODUCED_3_,1,arrival_time,X_INTRODUCED_95_):: defines_var(X_INTRODUCED_95_);
constraint int_lin_le(X_INTRODUCED_88_,[X_INTRODUCED_44_,X_INTRODUCED_95_,X_INTRODUCED_94_],0);
constraint gecode_int_element(X_INTRODUCED_4_,1,X_INTRODUCED_97_,X_INTRODUCED_98_):: defines_var(X_INTRODUCED_98_);
constraint gecode_int_element(X_INTRODUCED_4_,1,arrival_time,X_INTRODUCED_99_):: defines_var(X_INTRODUCED_99_);
constraint int_lin_le(X_INTRODUCED_88_,[X_INTRODUCED_45_,X_INTRODUCED_99_,X_INTRODUCED_98_],0);
constraint gecode_int_element(X_INTRODUCED_5_,1,X_INTRODUCED_101_,X_INTRODUCED_102_):: defines_var(X_INTRODUCED_102_);
constraint gecode_int_element(X_INTRODUCED_5_,1,arrival_time,X_INTRODUCED_103_):: defines_var(X_INTRODUCED_103_);
constraint int_lin_le(X_INTRODUCED_88_,[X_INTRODUCED_46_,X_INTRODUCED_103_,X_INTRODUCED_102_],0);
constraint gecode_int_element(X_INTRODUCED_6_,1,X_INTRODUCED_105_,X_INTRODUCED_106_):: defines_var(X_INTRODUCED_106_);
constraint gecode_int_element(X_INTRODUCED_6_,1,arrival_time,X_INTRODUCED_107_):: defines_var(X_INTRODUCED_107_);
constraint int_lin_le(X_INTRODUCED_88_,[X_INTRODUCED_47_,X_INTRODUCED_107_,X_INTRODUCED_106_],0);
constraint gecode_int_element(X_INTRODUCED_7_,1,X_INTRODUCED_109_,X_INTRODUCED_110_):: defines_var(X_INTRODUCED_110_);
constraint gecode_int_element(X_INTRODUCED_7_,1,arrival_time,X_INTRODUCED_111_):: defines_var(X_INTRODUCED_111_);
constraint int_lin_le(X_INTRODUCED_88_,[X_INTRODUCED_48_,X_INTRODUCED_111_,X_INTRODUCED_110_],0);
constraint gecode_int_element(X_INTRODUCED_8_,1,X_INTRODUCED_113_,X_INTRODUCED_114_):: defines_var(X_INTRODUCED_114_);
constraint gecode_int_element(X_INTRODUCED_8_,1,arrival_time,X_INTRODUCED_115_):: defines_var(X_INTRODUCED_115_);
constraint int_lin_le(X_INTRODUCED_88_,[X_INTRODUCED_49_,X_INTRODUCED_115_,X_INTRODUCED_114_],0);
constraint gecode_int_element(X_INTRODUCED_9_,1,X_INTRODUCED_117_,X_INTRODUCED_118_):: defines_var(X_INTRODUCED_118_);
constraint gecode_int_element(X_INTRODUCED_9_,1,arrival_time,X_INTRODUCED_119_):: defines_var(X_INTRODUCED_119_);
constraint int_lin_le(X_INTRODUCED_88_,[X_INTRODUCED_50_,X_INTRODUCED_119_,X_INTRODUCED_118_],0);
constraint gecode_int_element(X_INTRODUCED_10_,1,X_INTRODUCED_121_,X_INTRODUCED_122_):: defines_var(X_INTRODUCED_122_);
constraint gecode_int_element(X_INTRODUCED_10_,1,arrival_time,X_INTRODUCED_123_):: defines_var(X_INTRODUCED_123_);
constraint int_lin_le(X_INTRODUCED_88_,[X_INTRODUCED_51_,X_INTRODUCED_123_,X_INTRODUCED_122_],0);
constraint gecode_int_element(X_INTRODUCED_11_,1,X_INTRODUCED_125_,X_INTRODUCED_126_):: defines_var(X_INTRODUCED_126_);
constraint gecode_int_element(X_INTRODUCED_11_,1,arrival_time,X_INTRODUCED_127_):: defines_var(X_INTRODUCED_127_);
constraint int_lin_le(X_INTRODUCED_88_,[X_INTRODUCED_52_,X_INTRODUCED_127_,X_INTRODUCED_126_],0);
constraint gecode_int_element(X_INTRODUCED_12_,1,X_INTRODUCED_129_,X_INTRODUCED_130_):: defines_var(X_INTRODUCED_130_);
constraint gecode_int_element(X_INTRODUCED_12_,1,arrival_time,X_INTRODUCED_131_):: defines_var(X_INTRODUCED_131_);
constraint int_lin_le(X_INTRODUCED_88_,[X_INTRODUCED_53_,X_INTRODUCED_131_,X_INTRODUCED_130_],0);
constraint gecode_int_element(X_INTRODUCED_13_,1,X_INTRODUCED_133_,X_INTRODUCED_134_):: defines_var(X_INTRODUCED_134_);
constraint gecode_int_element(X_INTRODUCED_13_,1,arrival_time,X_INTRODUCED_135_):: defines_var(X_INTRODUCED_135_);
constraint int_lin_le(X_INTRODUCED_88_,[X_INTRODUCED_54_,X_INTRODUCED_135_,X_INTRODUCED_134_],0);
constraint gecode_int_element(X_INTRODUCED_14_,1,X_INTRODUCED_137_,X_INTRODUCED_138_):: defines_var(X_INTRODUCED_138_);
constraint gecode_int_element(X_INTRODUCED_14_,1,arrival_time,X_INTRODUCED_139_):: defines_var(X_INTRODUCED_139_);
constraint int_lin_le(X_INTRODUCED_88_,[X_INTRODUCED_55_,X_INTRODUCED_139_,X_INTRODUCED_138_],0);
constraint gecode_int_element(X_INTRODUCED_15_,1,X_INTRODUCED_141_,X_INTRODUCED_142_):: defines_var(X_INTRODUCED_142_);
constraint gecode_int_element(X_INTRODUCED_15_,1,arrival_time,X_INTRODUCED_143_):: defines_var(X_INTRODUCED_143_);
constraint int_lin_le(X_INTRODUCED_88_,[X_INTRODUCED_56_,X_INTRODUCED_143_,X_INTRODUCED_142_],0);
constraint gecode_int_element(X_INTRODUCED_16_,1,X_INTRODUCED_145_,X_INTRODUCED_146_):: defines_var(X_INTRODUCED_146_);
constraint gecode_int_element(X_INTRODUCED_16_,1,arrival_time,X_INTRODUCED_147_):: defines_var(X_INTRODUCED_147_);
constraint int_lin_le(X_INTRODUCED_88_,[X_INTRODUCED_57_,X_INTRODUCED_147_,X_INTRODUCED_146_],0);
constraint gecode_int_element(X_INTRODUCED_17_,1,X_INTRODUCED_149_,X_INTRODUCED_150_):: defines_var(X_INTRODUCED_150_);
constraint gecode_int_element(X_INTRODUCED_17_,1,arrival_time,X_INTRODUCED_151_):: defines_var(X_INTRODUCED_151_);
constraint int_lin_le(X_INTRODUCED_88_,[X_INTRODUCED_58_,X_INTRODUCED_151_,X_INTRODUCED_150_],0);
constraint gecode_int_element(X_INTRODUCED_18_,1,X_INTRODUCED_153_,X_INTRODUCED_154_):: defines_var(X_INTRODUCED_154_);
constraint gecode_int_element(X_INTRODUCED_18_,1,arrival_time,X_INTRODUCED_155_):: defines_var(X_INTRODUCED_155_);
constraint int_lin_le(X_INTRODUCED_88_,[X_INTRODUCED_59_,X_INTRODUCED_155_,X_INTRODUCED_154_],0);
constraint gecode_int_element(X_INTRODUCED_19_,1,X_INTRODUCED_157_,X_INTRODUCED_158_):: defines_var(X_INTRODUCED_158_);
constraint gecode_int_element(X_INTRODUCED_19_,1,arrival_time,X_INTRODUCED_159_):: defines_var(X_INTRODUCED_159_);
constraint int_lin_le(X_INTRODUCED_88_,[X_INTRODUCED_60_,X_INTRODUCED_159_,X_INTRODUCED_158_],0);
constraint gecode_int_element(X_INTRODUCED_20_,1,X_INTRODUCED_161_,X_INTRODUCED_162_):: defines_var(X_INTRODUCED_162_);
constraint gecode_int_element(X_INTRODUCED_20_,1,arrival_time,X_INTRODUCED_163_):: defines_var(X_INTRODUCED_163_);
constraint int_lin_le(X_INTRODUCED_88_,[X_INTRODUCED_61_,X_INTRODUCED_163_,X_INTRODUCED_162_],0);
constraint gecode_int_element(X_INTRODUCED_21_,1,X_INTRODUCED_165_,X_INTRODUCED_166_):: defines_var(X_INTRODUCED_166_);
constraint gecode_int_element(X_INTRODUCED_21_,1,arrival_time,X_INTRODUCED_167_):: defines_var(X_INTRODUCED_167_);
constraint int_lin_le(X_INTRODUCED_88_,[X_INTRODUCED_62_,X_INTRODUCED_167_,X_INTRODUCED_166_],0);
constraint gecode_int_element(X_INTRODUCED_22_,1,X_INTRODUCED_169_,X_INTRODUCED_170_):: defines_var(X_INTRODUCED_170_);
constraint gecode_int_element(X_INTRODUCED_22_,1,arrival_time,X_INTRODUCED_171_):: defines_var(X_INTRODUCED_171_);
constraint int_lin_le(X_INTRODUCED_88_,[X_INTRODUCED_63_,X_INTRODUCED_171_,X_INTRODUCED_170_],0);
constraint gecode_int_element(X_INTRODUCED_23_,1,X_INTRODUCED_173_,X_INTRODUCED_174_):: defines_var(X_INTRODUCED_174_);
constraint gecode_int_element(X_INTRODUCED_23_,1,arrival_time,X_INTRODUCED_175_):: defines_var(X_INTRODUCED_175_);
constraint int_lin_le(X_INTRODUCED_88_,[X_INTRODUCED_64_,X_INTRODUCED_175_,X_INTRODUCED_174_],0);
constraint gecode_int_element(X_INTRODUCED_24_,1,X_INTRODUCED_177_,X_INTRODUCED_178_):: defines_var(X_INTRODUCED_178_);
constraint gecode_int_element(X_INTRODUCED_24_,1,arrival_time,X_INTRODUCED_179_):: defines_var(X_INTRODUCED_179_);
constraint int_lin_le(X_INTRODUCED_88_,[X_INTRODUCED_65_,X_INTRODUCED_179_,X_INTRODUCED_178_],0);
constraint gecode_int_element(X_INTRODUCED_25_,1,X_INTRODUCED_181_,X_INTRODUCED_182_):: defines_var(X_INTRODUCED_182_);
constraint gecode_int_element(X_INTRODUCED_25_,1,arrival_time,X_INTRODUCED_183_):: defines_var(X_INTRODUCED_183_);
constraint int_lin_le(X_INTRODUCED_88_,[X_INTRODUCED_66_,X_INTRODUCED_183_,X_INTRODUCED_182_],0);
constraint gecode_int_element(X_INTRODUCED_26_,1,X_INTRODUCED_185_,X_INTRODUCED_186_):: defines_var(X_INTRODUCED_186_);
constraint gecode_int_element(X_INTRODUCED_26_,1,arrival_time,X_INTRODUCED_187_):: defines_var(X_INTRODUCED_187_);
constraint int_lin_le(X_INTRODUCED_88_,[X_INTRODUCED_67_,X_INTRODUCED_187_,X_INTRODUCED_186_],0);
constraint gecode_int_element(X_INTRODUCED_27_,1,X_INTRODUCED_189_,X_INTRODUCED_190_):: defines_var(X_INTRODUCED_190_);
constraint gecode_int_element(X_INTRODUCED_27_,1,arrival_time,X_INTRODUCED_191_):: defines_var(X_INTRODUCED_191_);
constraint int_lin_le(X_INTRODUCED_88_,[X_INTRODUCED_68_,X_INTRODUCED_191_,X_INTRODUCED_190_],0);
constraint gecode_int_element(X_INTRODUCED_28_,1,X_INTRODUCED_193_,X_INTRODUCED_194_):: defines_var(X_INTRODUCED_194_);
constraint gecode_int_element(X_INTRODUCED_28_,1,arrival_time,X_INTRODUCED_195_):: defines_var(X_INTRODUCED_195_);
constraint int_lin_le(X_INTRODUCED_88_,[X_INTRODUCED_69_,X_INTRODUCED_195_,X_INTRODUCED_194_],0);
constraint gecode_int_element(X_INTRODUCED_29_,1,X_INTRODUCED_125_,X_INTRODUCED_197_):: defines_var(X_INTRODUCED_197_);
constraint gecode_int_element(X_INTRODUCED_29_,1,arrival_time,X_INTRODUCED_198_):: defines_var(X_INTRODUCED_198_);
constraint int_lin_le(X_INTRODUCED_88_,[X_INTRODUCED_70_,X_INTRODUCED_198_,X_INTRODUCED_197_],0);
constraint gecode_int_element(X_INTRODUCED_30_,1,X_INTRODUCED_200_,X_INTRODUCED_201_):: defines_var(X_INTRODUCED_201_);
constraint gecode_int_element(X_INTRODUCED_30_,1,arrival_time,X_INTRODUCED_202_):: defines_var(X_INTRODUCED_202_);
constraint int_lin_le(X_INTRODUCED_88_,[X_INTRODUCED_71_,X_INTRODUCED_202_,X_INTRODUCED_201_],0);
constraint gecode_int_element(X_INTRODUCED_31_,1,X_INTRODUCED_204_,X_INTRODUCED_205_):: defines_var(X_INTRODUCED_205_);
constraint gecode_int_element(X_INTRODUCED_31_,1,arrival_time,X_INTRODUCED_206_):: defines_var(X_INTRODUCED_206_);
constraint int_lin_le(X_INTRODUCED_88_,[X_INTRODUCED_72_,X_INTRODUCED_206_,X_INTRODUCED_205_],0);
constraint gecode_int_element(X_INTRODUCED_32_,1,X_INTRODUCED_208_,X_INTRODUCED_209_):: defines_var(X_INTRODUCED_209_);
constraint gecode_int_element(X_INTRODUCED_32_,1,arrival_time,X_INTRODUCED_210_):: defines_var(X_INTRODUCED_210_);
constraint int_lin_le(X_INTRODUCED_88_,[X_INTRODUCED_73_,X_INTRODUCED_210_,X_INTRODUCED_209_],0);
constraint gecode_int_element(X_INTRODUCED_33_,1,X_INTRODUCED_212_,X_INTRODUCED_213_):: defines_var(X_INTRODUCED_213_);
constraint gecode_int_element(X_INTRODUCED_33_,1,arrival_time,X_INTRODUCED_214_):: defines_var(X_INTRODUCED_214_);
constraint int_lin_le(X_INTRODUCED_88_,[X_INTRODUCED_74_,X_INTRODUCED_214_,X_INTRODUCED_213_],0);
constraint gecode_int_element(X_INTRODUCED_34_,1,X_INTRODUCED_216_,X_INTRODUCED_217_):: defines_var(X_INTRODUCED_217_);
constraint gecode_int_element(X_INTRODUCED_34_,1,arrival_time,X_INTRODUCED_218_):: defines_var(X_INTRODUCED_218_);
constraint int_lin_le(X_INTRODUCED_88_,[X_INTRODUCED_75_,X_INTRODUCED_218_,X_INTRODUCED_217_],0);
constraint gecode_int_element(X_INTRODUCED_35_,1,X_INTRODUCED_220_,X_INTRODUCED_221_):: defines_var(X_INTRODUCED_221_);
constraint gecode_int_element(X_INTRODUCED_35_,1,arrival_time,X_INTRODUCED_222_):: defines_var(X_INTRODUCED_222_);
constraint int_lin_le(X_INTRODUCED_88_,[X_INTRODUCED_76_,X_INTRODUCED_222_,X_INTRODUCED_221_],0);
constraint gecode_int_element(X_INTRODUCED_36_,1,X_INTRODUCED_224_,X_INTRODUCED_225_):: defines_var(X_INTRODUCED_225_);
constraint gecode_int_element(X_INTRODUCED_36_,1,arrival_time,X_INTRODUCED_226_):: defines_var(X_INTRODUCED_226_);
constraint int_lin_le(X_INTRODUCED_88_,[X_INTRODUCED_77_,X_INTRODUCED_226_,X_INTRODUCED_225_],0);
constraint gecode_int_element(X_INTRODUCED_37_,1,X_INTRODUCED_228_,X_INTRODUCED_229_):: defines_var(X_INTRODUCED_229_);
constraint gecode_int_element(X_INTRODUCED_37_,1,arrival_time,X_INTRODUCED_230_):: defines_var(X_INTRODUCED_230_);
constraint int_lin_le(X_INTRODUCED_88_,[X_INTRODUCED_78_,X_INTRODUCED_230_,X_INTRODUCED_229_],0);
constraint gecode_int_element(X_INTRODUCED_38_,1,X_INTRODUCED_232_,X_INTRODUCED_233_):: defines_var(X_INTRODUCED_233_);
constraint gecode_int_element(X_INTRODUCED_38_,1,arrival_time,X_INTRODUCED_234_):: defines_var(X_INTRODUCED_234_);
constraint int_lin_le(X_INTRODUCED_88_,[X_INTRODUCED_79_,X_INTRODUCED_234_,X_INTRODUCED_233_],0);
constraint gecode_int_element(X_INTRODUCED_39_,1,X_INTRODUCED_236_,X_INTRODUCED_237_):: defines_var(X_INTRODUCED_237_);
constraint gecode_int_element(X_INTRODUCED_39_,1,arrival_time,X_INTRODUCED_238_):: defines_var(X_INTRODUCED_238_);
constraint int_lin_le(X_INTRODUCED_88_,[X_INTRODUCED_80_,X_INTRODUCED_238_,X_INTRODUCED_237_],0);
constraint gecode_int_element(X_INTRODUCED_40_,1,X_INTRODUCED_240_,X_INTRODUCED_241_):: defines_var(X_INTRODUCED_241_);
constraint gecode_int_element(X_INTRODUCED_40_,1,arrival_time,X_INTRODUCED_242_):: defines_var(X_INTRODUCED_242_);
constraint int_lin_le(X_INTRODUCED_88_,[X_INTRODUCED_81_,X_INTRODUCED_242_,X_INTRODUCED_241_],0);
constraint gecode_int_element(X_INTRODUCED_0_,1,X_INTRODUCED_244_,X_INTRODUCED_245_):: defines_var(X_INTRODUCED_245_);
constraint int_lin_eq(X_INTRODUCED_249_,X_INTRODUCED_248_,0):: defines_var(obj);
solve :: seq_search([int_search(X_INTRODUCED_250_,max_regret,indomain_min,complete),int_search(pred,dom_w_deg,indomain_random,complete),int_search(arrival_time,input_order,indomain_max,complete)]):: relax_and_reconstruct(pred,70) minimize obj;
